20150716 100 0 0 0
20140702 120 0 0 0
20130617 80 0 0 0
20120601 80 0 0 0
20110602 100 0 0 0
20100621 70 6000 0 0
20090525 150 0 0 0
20080625 120 0 0 0
20070626 100 0 0 0
20060926 0 2700 0 0
20060517 250 5000 0 0
20050630 350 0 0 0
20040513 100 10000 0 0
20030609 100 0 0 0
